p tdp 20 92
1 3
1 6
1 7
1 8
1 9
1 10
1 12
1 13
1 16
1 18
1 19
2 4
2 6
2 7
2 15
2 16
2 18
3 4
3 5
3 6
3 8
3 10
3 12
3 17
3 18
4 6
4 9
4 11
4 17
4 19
4 20
5 6
5 7
5 8
5 10
5 15
5 16
5 17
5 18
5 20
6 10
6 12
6 13
6 14
6 15
6 16
6 19
6 20
7 8
7 9
7 10
7 11
7 12
7 14
7 15
7 18
7 19
8 10
8 11
8 14
8 15
8 16
8 18
9 11
9 12
9 14
9 17
9 20
10 12
10 14
10 15
10 16
10 19
11 12
11 14
11 18
11 19
12 13
12 14
12 16
12 19
13 14
13 15
13 17
13 18
15 19
15 20
16 17
17 19
18 19
18 20
19 20
